(set-logic SLIA)

(synth-fun f ((x String)) String
    (
    (Start String ((Concat ntStringP Start) (Str ntStringP)))
    (ntStringP String ((SubStr argString ntPos ntPos) (ConstStr ntConstString)))
    (ntConstString String (" " "," "USA" "PA" "CT" "CA" "MD" "NY"))
    (ntPos Int ((Pos argString ntToken ntInt ntDir) (ConstPos ntConstPos)))
    (ntConstPos Int (0 1 2 3 4 5 6 7 8 9 10))
    (argString String (x))
    (ntToken String ("ProperCase" "CAPS" "lowercase" "Digits" "Alphabets" "Alphanumeric" "Whitespace" "StartT" "EndT" "ProperCaseWSpaces" "CapsWSpaces" "lowercaseWSpaces" "AlphabetWSpaces" "Sep"))
    (ntInt Int (1 -1 2 -2 3 -3))
    (ntDir Int (0 1))
    )
    )

(declare-var col1 String)
(declare-var col2 String)
(constraint (= (f "University of Pennsylvania|Phialdelphia, PA, USA") "University of Pennsylvania, Phialdelphia, PA, USA"))
(constraint (= (f "UCLA|Los Angeles, CA") "UCLA, Los Angeles, CA, USA"))
(constraint (= (f "Cornell University|Ithaca, New York, USA") "Cornell University, Ithaca, New York, USA"))
(constraint (= (f "Penn|Philadelphia, PA, USA") "Penn, Philadelphia, PA, USA"))
(constraint (= (f "University of Maryland College Park|College Park, MD") "University of Maryland College Park, College Park, MD, USA"))
(constraint (= (f "University of Michigan|Ann Arbor, MI, USA") "University of Michigan, Ann Arbor, MI, USA"))
(constraint (= (f "UC Berkeley|Berkeley, CA") "UC Berkeley, Berkeley, CA, USA"))
(constraint (= (f "MIT|Cambridge, MA") "MIT, Cambridge, MA, USA"))
(constraint (= (f "Rice University|Houston, TX") "Rice University, Houston, TX, USA"))
(constraint (= (f "Yale University|New Haven, CT, USA") "Yale University, New Haven, CT, USA"))
(constraint (= (f "Columbia University|New York, NY, USA") "Columbia University, New York, NY, USA"))
(constraint (= (f "NYU|New York, New York, USA") "NYU, New York, New York, USA"))
(constraint (= (f "UC Berkeley|Berkeley, CA") "UC Berkeley, Berkeley, CA, USA"))
(constraint (= (f "UIUC|Urbana, IL") "UIUC, Urbana, IL, USA"))
(constraint (= (f "Temple University|Philadelphia, PA") "Temple University, Philadelphia, PA, USA"))
(constraint (= (f "Harvard University|Cambridge, MA, USA") "Harvard University, Cambridge, MA, USA"))
(constraint (= (f "University of Connecticut|Storrs, CT, USA") "University of Connecticut, Storrs, CT, USA"))
(constraint (= (f "Drexel University|Philadelphia, PA") "Drexel University, Philadelphia, PA, USA"))
(constraint (= (f "New Haven University|New Haven, CT, USA") "New Haven University, New Haven, CT, USA"))
(constraint (= (f "University of California, Santa Barbara|Santa Barbara, CA, USA") "University of California, Santa Barbara, Santa Barbara, CA, USA"))

(check-synth)

